============================[ Problem Statistics ]=============================|                                                                             ||  Number of variables:          4242                                         ||  Number of clauses:           10276                                         ||  Parse time:                   0.66 s                                       ||                                                                             |============================[ Search Statistics ]==============================| Conflicts |          ORIGINAL         |          LEARNT          | Progress ||           |    Vars  Clauses Literals |    Limit  Clauses Lit/Cl |          |===============================================================================|       100 |    1591     6481  1058672 |     2376      100     53 | 62.501 % ||       250 |    1591     6481  1058672 |     2614      250     75 | 62.495 % |===============================================================================restarts              : 3conflicts             : 362            (362 /sec)decisions             : 628            (0.00 % random) (627 /sec)propagations          : 11980          (11968 /sec)conflict literals     : 29566          (94.61 % deleted)CPU time              : 1.001 sSATISFIABLE